c File: flat30_3_0.col
c
c SOURCE: Joseph Culberson (joe@cs.ualberta.ca)
c DESCRIPTION: Quasi-random coloring problem
c              generated with flatness = 0
c                             probability = 0.200
c                             known coloring = 3
c                             random seed = 244498
c              Creation Date:  Fri Nov 29 22:02:38 1996
c Maximum degree = 6 Minimum degree = 1
c
c cnf created by edge2cnf
p cnf 90 300
-1 -2 0
-1 -3 0
-2 -3 0
1 2 3 0
-4 -5 0
-4 -6 0
-5 -6 0
4 5 6 0
-7 -8 0
-7 -9 0
-8 -9 0
7 8 9 0
-10 -11 0
-10 -12 0
-11 -12 0
10 11 12 0
-13 -14 0
-13 -15 0
-14 -15 0
13 14 15 0
-16 -17 0
-16 -18 0
-17 -18 0
16 17 18 0
-19 -20 0
-19 -21 0
-20 -21 0
19 20 21 0
-22 -23 0
-22 -24 0
-23 -24 0
22 23 24 0
-25 -26 0
-25 -27 0
-26 -27 0
25 26 27 0
-28 -29 0
-28 -30 0
-29 -30 0
28 29 30 0
-31 -32 0
-31 -33 0
-32 -33 0
31 32 33 0
-34 -35 0
-34 -36 0
-35 -36 0
34 35 36 0
-37 -38 0
-37 -39 0
-38 -39 0
37 38 39 0
-40 -41 0
-40 -42 0
-41 -42 0
40 41 42 0
-43 -44 0
-43 -45 0
-44 -45 0
43 44 45 0
-46 -47 0
-46 -48 0
-47 -48 0
46 47 48 0
-49 -50 0
-49 -51 0
-50 -51 0
49 50 51 0
-52 -53 0
-52 -54 0
-53 -54 0
52 53 54 0
-55 -56 0
-55 -57 0
-56 -57 0
55 56 57 0
-58 -59 0
-58 -60 0
-59 -60 0
58 59 60 0
-61 -62 0
-61 -63 0
-62 -63 0
61 62 63 0
-64 -65 0
-64 -66 0
-65 -66 0
64 65 66 0
-67 -68 0
-67 -69 0
-68 -69 0
67 68 69 0
-70 -71 0
-70 -72 0
-71 -72 0
70 71 72 0
-73 -74 0
-73 -75 0
-74 -75 0
73 74 75 0
-76 -77 0
-76 -78 0
-77 -78 0
76 77 78 0
-79 -80 0
-79 -81 0
-80 -81 0
79 80 81 0
-82 -83 0
-82 -84 0
-83 -84 0
82 83 84 0
-85 -86 0
-85 -87 0
-86 -87 0
85 86 87 0
-88 -89 0
-88 -90 0
-89 -90 0
88 89 90 0
-49 -1 0
-50 -2 0
-51 -3 0
-67 -1 0
-68 -2 0
-69 -3 0
-76 -1 0
-77 -2 0
-78 -3 0
-46 -4 0
-47 -5 0
-48 -6 0
-55 -4 0
-56 -5 0
-57 -6 0
-58 -4 0
-59 -5 0
-60 -6 0
-76 -4 0
-77 -5 0
-78 -6 0
-82 -4 0
-83 -5 0
-84 -6 0
-85 -4 0
-86 -5 0
-87 -6 0
-31 -7 0
-32 -8 0
-33 -9 0
-49 -7 0
-50 -8 0
-51 -9 0
-55 -7 0
-56 -8 0
-57 -9 0
-67 -7 0
-68 -8 0
-69 -9 0
-70 -7 0
-71 -8 0
-72 -9 0
-82 -7 0
-83 -8 0
-84 -9 0
-49 -10 0
-50 -11 0
-51 -12 0
-55 -10 0
-56 -11 0
-57 -12 0
-67 -10 0
-68 -11 0
-69 -12 0
-76 -10 0
-77 -11 0
-78 -12 0
-85 -10 0
-86 -11 0
-87 -12 0
-40 -13 0
-41 -14 0
-42 -15 0
-73 -13 0
-74 -14 0
-75 -15 0
-79 -13 0
-80 -14 0
-81 -15 0
-73 -16 0
-74 -17 0
-75 -18 0
-79 -16 0
-80 -17 0
-81 -18 0
-40 -19 0
-41 -20 0
-42 -21 0
-52 -19 0
-53 -20 0
-54 -21 0
-58 -19 0
-59 -20 0
-60 -21 0
-37 -22 0
-38 -23 0
-39 -24 0
-79 -22 0
-80 -23 0
-81 -24 0
-34 -25 0
-35 -26 0
-36 -27 0
-43 -25 0
-44 -26 0
-45 -27 0
-52 -25 0
-53 -26 0
-54 -27 0
-64 -25 0
-65 -26 0
-66 -27 0
-46 -28 0
-47 -29 0
-48 -30 0
-52 -28 0
-53 -29 0
-54 -30 0
-58 -28 0
-59 -29 0
-60 -30 0
-61 -28 0
-62 -29 0
-63 -30 0
-70 -28 0
-71 -29 0
-72 -30 0
-85 -28 0
-86 -29 0
-87 -30 0
-61 -31 0
-62 -32 0
-63 -33 0
-64 -31 0
-65 -32 0
-66 -33 0
-88 -31 0
-89 -32 0
-90 -33 0
-67 -37 0
-68 -38 0
-69 -39 0
-76 -37 0
-77 -38 0
-78 -39 0
-82 -37 0
-83 -38 0
-84 -39 0
-70 -40 0
-71 -41 0
-72 -42 0
-85 -40 0
-86 -41 0
-87 -42 0
-88 -40 0
-89 -41 0
-90 -42 0
-73 -43 0
-74 -44 0
-75 -45 0
-76 -43 0
-77 -44 0
-78 -45 0
-61 -46 0
-62 -47 0
-63 -48 0
-73 -46 0
-74 -47 0
-75 -48 0
-85 -46 0
-86 -47 0
-87 -48 0
-61 -49 0
-62 -50 0
-63 -51 0
-76 -49 0
-77 -50 0
-78 -51 0
-88 -49 0
-89 -50 0
-90 -51 0
-64 -55 0
-65 -56 0
-66 -57 0
-85 -55 0
-86 -56 0
-87 -57 0
-70 -58 0
-71 -59 0
-72 -60 0
